param n := 120;
param c := 1500
param : V : p w :=
   0	 107	  97
   1	  67	  57
   2	  91	  81
   3	  72	  62
   4	  85	  75
   5	  91	  81
   6	  33	  23
   7	  53	  43
   8	  60	  50
   9	  48	  38
  10	  70	  60
  11	  68	  58
  12	  80	  70
  13	  98	  88
  14	  46	  36
  15	 100	  90
  16	  47	  37
  17	  55	  45
  18	  55	  45
  19	  49	  39
  20	  54	  44
  21	  63	  53
  22	  80	  70
  23	  34	  24
  24	  92	  82
  25	  91	  81
  26	  57	  47
  27	 107	  97
  28	  45	  35
  29	  75	  65
  30	  84	  74
  31	  78	  68
  32	  59	  49
  33	  65	  55
  34	  62	  52
  35	 104	  94
  36	 105	  95
  37	  39	  29
  38	 109	  99
  39	  30	  20
  40	  32	  22
  41	  35	  25
  42	  59	  49
  43	  56	  46
  44	 108	  98
  45	  69	  59
  46	 108	  98
  47	  70	  60
  48	  33	  23
  49	  82	  72
  50	  43	  33
  51	 108	  98
  52	  90	  80
  53	 105	  95
  54	  88	  78
  55	  67	  57
  56	  77	  67
  57	  63	  53
  58	  57	  47
  59	  63	  53
  60	  46	  36
  61	  48	  38
  62	 102	  92
  63	  40	  30
  64	  90	  80
  65	  42	  32
  66	 107	  97
  67	  49	  39
  68	  90	  80
  69	  82	  72
  70	  65	  55
  71	  51	  41
  72	  70	  60
  73	  77	  67
  74	  63	  53
  75	  75	  65
  76	 105	  95
  77	  30	  20
  78	  76	  66
  79	  88	  78
  80	 108	  98
  81	  57	  47
  82	 110	 100
  83	  95	  85
  84	  63	  53
  85	  63	  53
  86	  77	  67
  87	  37	  27
  88	  32	  22
  89	  71	  61
  90	  53	  43
  91	  62	  52
  92	  86	  76
  93	  74	  64
  94	  71	  61
  95	  39	  29
  96	  40	  30
  97	  56	  46
  98	  89	  79
  99	  76	  66
 100	  37	  27
 101	  89	  79
 102	 108	  98
 103	 100	  90
 104	  32	  22
 105	  85	  75
 106	  67	  57
 107	  77	  67
 108	  46	  36
 109	  80	  70
 110	 109	  99
 111	  58	  48
 112	  53	  43
 113	  55	  45
 114	  81	  71
 115	 110	 100
 116	  98	  88
 117	  58	  48
 118	  37	  27
 119	  49	  39
;

set E :=
   0	   1
   0	   5
   0	   6
   0	  11
   0	  13
   0	  14
   0	  16
   0	  18
   0	  19
   0	  20
   0	  22
   0	  26
   0	  37
   0	  45
   0	  49
   0	  53
   0	  54
   0	  55
   0	  58
   0	  59
   0	  69
   0	  70
   0	  72
   0	  74
   0	  77
   0	  78
   0	  80
   0	  81
   0	  88
   0	  96
   0	 101
   0	 106
   0	 111
   0	 113
   1	   3
   1	   6
   1	   8
   1	   9
   1	  10
   1	  16
   1	  17
   1	  24
   1	  25
   1	  26
   1	  31
   1	  35
   1	  42
   1	  43
   1	  44
   1	  46
   1	  48
   1	  54
   1	  57
   1	  63
   1	  64
   1	  66
   1	  67
   1	  69
   1	  78
   1	  79
   1	  84
   1	  85
   1	  87
   1	 101
   1	 102
   1	 104
   1	 106
   1	 111
   1	 114
   1	 119
   2	   3
   2	   5
   2	   8
   2	  11
   2	  20
   2	  22
   2	  23
   2	  25
   2	  27
   2	  33
   2	  36
   2	  46
   2	  47
   2	  48
   2	  53
   2	  55
   2	  56
   2	  57
   2	  61
   2	  62
   2	  72
   2	  73
   2	  74
   2	  81
   2	  85
   2	  86
   2	  87
   2	  91
   2	  97
   2	  99
   2	 101
   2	 107
   2	 109
   2	 111
   2	 114
   2	 117
   3	   5
   3	   9
   3	  13
   3	  14
   3	  15
   3	  16
   3	  17
   3	  21
   3	  29
   3	  36
   3	  37
   3	  40
   3	  41
   3	  42
   3	  43
   3	  44
   3	  50
   3	  52
   3	  56
   3	  58
   3	  61
   3	  66
   3	  74
   3	  77
   3	  80
   3	  82
   3	  83
   3	  88
   3	  92
   3	  96
   3	 101
   3	 102
   3	 110
   3	 112
   3	 114
   4	   7
   4	  11
   4	  14
   4	  17
   4	  21
   4	  27
   4	  32
   4	  37
   4	  40
   4	  41
   4	  44
   4	  45
   4	  46
   4	  52
   4	  53
   4	  54
   4	  55
   4	  56
   4	  59
   4	  62
   4	  65
   4	  67
   4	  74
   4	  82
   4	  89
   4	  91
   4	  92
   4	 100
   4	 103
   4	 105
   4	 108
   4	 109
   4	 112
   4	 118
   4	 119
   5	   8
   5	  19
   5	  20
   5	  28
   5	  29
   5	  30
   5	  44
   5	  49
   5	  52
   5	  53
   5	  56
   5	  57
   5	  60
   5	  61
   5	  67
   5	  72
   5	  84
   5	  88
   5	  90
   5	  91
   5	  99
   5	 100
   5	 102
   5	 103
   5	 105
   5	 111
   5	 112
   5	 113
   6	  10
   6	  15
   6	  18
   6	  19
   6	  24
   6	  39
   6	  41
   6	  44
   6	  46
   6	  47
   6	  48
   6	  61
   6	  78
   6	  86
   6	  89
   6	  92
   6	  99
   6	 102
   6	 103
   6	 104
   6	 105
   6	 109
   6	 113
   6	 115
   6	 117
   7	   9
   7	  12
   7	  13
   7	  20
   7	  27
   7	  35
   7	  39
   7	  41
   7	  44
   7	  46
   7	  47
   7	  49
   7	  55
   7	  65
   7	  66
   7	  67
   7	  82
   7	  84
   7	  88
   7	  91
   7	  96
   7	 100
   7	 104
   7	 106
   7	 109
   7	 110
   7	 116
   7	 117
   8	  12
   8	  16
   8	  17
   8	  18
   8	  20
   8	  26
   8	  31
   8	  33
   8	  38
   8	  40
   8	  44
   8	  47
   8	  48
   8	  49
   8	  51
   8	  53
   8	  55
   8	  61
   8	  63
   8	  65
   8	  66
   8	  67
   8	  68
   8	  69
   8	  71
   8	  75
   8	  77
   8	  81
   8	  83
   8	  86
   8	  88
   8	  89
   8	  90
   8	  92
   8	  94
   8	 102
   8	 106
   8	 110
   8	 111
   9	  18
   9	  23
   9	  31
   9	  34
   9	  35
   9	  39
   9	  41
   9	  45
   9	  48
   9	  50
   9	  53
   9	  56
   9	  64
   9	  66
   9	  71
   9	  74
   9	  77
   9	  86
   9	  91
   9	 105
   9	 106
   9	 109
   9	 111
   9	 115
  10	  11
  10	  15
  10	  17
  10	  22
  10	  28
  10	  30
  10	  33
  10	  36
  10	  37
  10	  40
  10	  41
  10	  42
  10	  43
  10	  47
  10	  49
  10	  50
  10	  51
  10	  53
  10	  56
  10	  57
  10	  58
  10	  59
  10	  60
  10	  62
  10	  71
  10	  72
  10	  74
  10	  75
  10	  76
  10	  81
  10	  84
  10	  90
  10	  91
  10	  92
  10	  93
  10	  96
  10	 103
  10	 104
  10	 108
  11	  13
  11	  14
  11	  17
  11	  19
  11	  21
  11	  24
  11	  27
  11	  28
  11	  34
  11	  35
  11	  37
  11	  38
  11	  47
  11	  49
  11	  54
  11	  57
  11	  58
  11	  62
  11	  64
  11	  66
  11	  69
  11	  70
  11	  71
  11	  76
  11	  81
  11	  82
  11	  84
  11	  87
  11	  89
  11	  93
  11	 101
  11	 102
  11	 105
  11	 106
  11	 113
  11	 114
  11	 115
  11	 117
  11	 119
  12	  22
  12	  23
  12	  26
  12	  29
  12	  30
  12	  32
  12	  40
  12	  43
  12	  45
  12	  52
  12	  55
  12	  59
  12	  68
  12	  69
  12	  71
  12	  74
  12	  79
  12	  82
  12	  90
  12	  92
  12	  93
  12	  96
  12	  98
  12	 101
  12	 103
  12	 104
  12	 105
  12	 109
  12	 117
  13	  16
  13	  19
  13	  27
  13	  31
  13	  33
  13	  34
  13	  43
  13	  45
  13	  55
  13	  59
  13	  61
  13	  62
  13	  64
  13	  68
  13	  69
  13	  70
  13	  71
  13	  75
  13	  82
  13	  86
  13	  88
  13	  91
  13	  99
  13	 100
  13	 103
  13	 104
  13	 110
  13	 113
  13	 116
  13	 118
  14	  15
  14	  17
  14	  21
  14	  24
  14	  27
  14	  32
  14	  34
  14	  38
  14	  42
  14	  43
  14	  44
  14	  53
  14	  56
  14	  57
  14	  61
  14	  62
  14	  65
  14	  66
  14	  70
  14	  73
  14	  82
  14	  83
  14	  85
  14	  86
  14	  89
  14	  90
  14	  94
  14	  96
  14	  98
  14	 102
  14	 103
  14	 104
  14	 110
  14	 112
  14	 119
  15	  18
  15	  20
  15	  22
  15	  23
  15	  24
  15	  29
  15	  32
  15	  34
  15	  37
  15	  39
  15	  41
  15	  46
  15	  49
  15	  52
  15	  64
  15	  66
  15	  68
  15	  74
  15	  76
  15	  78
  15	  81
  15	  86
  15	  92
  15	 100
  15	 105
  15	 111
  15	 113
  15	 114
  16	  17
  16	  20
  16	  24
  16	  28
  16	  29
  16	  30
  16	  31
  16	  36
  16	  43
  16	  45
  16	  47
  16	  57
  16	  58
  16	  63
  16	  65
  16	  70
  16	  74
  16	  77
  16	  78
  16	  80
  16	  82
  16	  83
  16	  84
  16	  86
  16	  87
  16	  88
  16	  92
  16	  95
  16	 100
  16	 101
  16	 108
  16	 117
  16	 118
  16	 119
  17	  27
  17	  31
  17	  33
  17	  37
  17	  38
  17	  39
  17	  40
  17	  46
  17	  47
  17	  50
  17	  55
  17	  57
  17	  62
  17	  67
  17	  73
  17	  74
  17	  75
  17	  79
  17	  82
  17	  84
  17	  85
  17	  90
  17	 101
  17	 104
  17	 105
  17	 110
  17	 116
  17	 118
  18	  21
  18	  22
  18	  26
  18	  32
  18	  35
  18	  37
  18	  40
  18	  41
  18	  47
  18	  48
  18	  51
  18	  61
  18	  66
  18	  73
  18	  75
  18	  80
  18	  82
  18	  85
  18	  87
  18	  98
  18	  99
  18	 103
  18	 106
  18	 110
  18	 112
  19	  25
  19	  33
  19	  38
  19	  39
  19	  42
  19	  47
  19	  48
  19	  50
  19	  55
  19	  56
  19	  58
  19	  63
  19	  76
  19	  81
  19	  92
  19	  94
  19	 100
  19	 106
  19	 108
  19	 112
  19	 113
  19	 116
  19	 117
  20	  22
  20	  26
  20	  28
  20	  32
  20	  43
  20	  45
  20	  51
  20	  55
  20	  59
  20	  60
  20	  64
  20	  66
  20	  69
  20	  70
  20	  72
  20	  74
  20	  77
  20	  79
  20	  81
  20	  84
  20	  85
  20	  86
  20	  92
  20	  96
  20	 100
  20	 103
  20	 105
  20	 106
  20	 109
  20	 112
  21	  28
  21	  29
  21	  31
  21	  33
  21	  36
  21	  42
  21	  43
  21	  45
  21	  48
  21	  49
  21	  51
  21	  55
  21	  61
  21	  65
  21	  71
  21	  72
  21	  78
  21	  84
  21	  88
  21	  89
  21	  90
  21	  94
  21	  98
  21	  99
  21	 103
  21	 104
  21	 106
  21	 113
  21	 117
  22	  25
  22	  28
  22	  30
  22	  31
  22	  32
  22	  36
  22	  37
  22	  38
  22	  39
  22	  42
  22	  44
  22	  57
  22	  58
  22	  59
  22	  61
  22	  63
  22	  64
  22	  69
  22	  70
  22	  72
  22	  73
  22	  87
  22	  90
  22	  91
  22	  94
  22	  99
  22	 102
  22	 103
  22	 109
  22	 110
  22	 113
  22	 116
  22	 118
  23	  31
  23	  32
  23	  38
  23	  39
  23	  41
  23	  43
  23	  50
  23	  54
  23	  57
  23	  61
  23	  63
  23	  72
  23	  73
  23	  75
  23	  76
  23	  79
  23	  83
  23	  85
  23	  91
  23	  93
  23	  94
  23	  95
  23	  96
  23	  97
  23	 103
  23	 106
  23	 111
  23	 112
  23	 116
  24	  27
  24	  34
  24	  40
  24	  41
  24	  47
  24	  48
  24	  50
  24	  57
  24	  58
  24	  64
  24	  66
  24	  67
  24	  70
  24	  72
  24	  73
  24	  79
  24	  80
  24	  81
  24	  82
  24	  86
  24	  88
  24	  93
  24	  94
  24	 101
  24	 104
  24	 111
  24	 114
  24	 118
  25	  26
  25	  30
  25	  34
  25	  40
  25	  41
  25	  46
  25	  47
  25	  50
  25	  52
  25	  56
  25	  58
  25	  60
  25	  61
  25	  63
  25	  64
  25	  67
  25	  78
  25	  80
  25	  86
  25	  93
  25	  95
  25	  98
  25	 100
  25	 101
  25	 102
  25	 106
  25	 110
  25	 112
  25	 115
  25	 118
  25	 119
  26	  27
  26	  36
  26	  44
  26	  50
  26	  52
  26	  53
  26	  56
  26	  58
  26	  61
  26	  62
  26	  63
  26	  68
  26	  73
  26	  75
  26	  76
  26	  81
  26	  84
  26	  88
  26	  89
  26	  91
  26	  94
  26	  95
  26	  96
  26	 103
  26	 104
  26	 110
  26	 113
  26	 114
  26	 118
  27	  28
  27	  36
  27	  38
  27	  46
  27	  48
  27	  49
  27	  52
  27	  55
  27	  62
  27	  64
  27	  66
  27	  67
  27	  75
  27	  76
  27	  81
  27	  85
  27	  90
  27	  92
  27	  94
  27	  95
  27	  97
  27	  98
  27	 107
  27	 108
  27	 112
  28	  32
  28	  33
  28	  36
  28	  42
  28	  43
  28	  48
  28	  53
  28	  55
  28	  58
  28	  60
  28	  63
  28	  64
  28	  70
  28	  75
  28	  77
  28	  78
  28	  82
  28	  83
  28	  85
  28	  88
  28	  89
  28	  90
  28	  92
  28	  93
  28	  95
  28	  98
  28	 101
  28	 105
  28	 107
  28	 116
  28	 118
  29	  37
  29	  38
  29	  39
  29	  40
  29	  43
  29	  44
  29	  47
  29	  48
  29	  49
  29	  50
  29	  51
  29	  52
  29	  58
  29	  59
  29	  67
  29	  70
  29	  72
  29	  74
  29	  75
  29	  80
  29	  82
  29	  87
  29	  97
  29	  98
  29	 102
  29	 105
  29	 106
  29	 110
  29	 111
  29	 112
  29	 114
  29	 119
  30	  31
  30	  35
  30	  37
  30	  38
  30	  40
  30	  42
  30	  43
  30	  45
  30	  48
  30	  51
  30	  52
  30	  54
  30	  62
  30	  65
  30	  67
  30	  76
  30	  77
  30	  85
  30	  90
  30	  96
  30	  97
  30	  98
  30	  99
  30	 103
  30	 106
  30	 108
  30	 113
  31	  32
  31	  37
  31	  41
  31	  48
  31	  49
  31	  53
  31	  54
  31	  60
  31	  61
  31	  64
  31	  65
  31	  69
  31	  70
  31	  72
  31	  76
  31	  79
  31	  82
  31	  83
  31	  85
  31	  86
  31	  87
  31	  89
  31	  91
  31	  92
  31	  93
  31	 103
  31	 105
  31	 106
  31	 107
  31	 108
  31	 110
  31	 113
  31	 115
  31	 118
  32	  33
  32	  40
  32	  42
  32	  44
  32	  45
  32	  54
  32	  56
  32	  59
  32	  62
  32	  63
  32	  72
  32	  73
  32	  79
  32	  87
  32	  91
  32	  92
  32	  94
  32	 100
  32	 105
  32	 109
  32	 110
  32	 113
  32	 116
  33	  35
  33	  37
  33	  39
  33	  49
  33	  53
  33	  55
  33	  60
  33	  71
  33	  76
  33	  77
  33	  80
  33	  86
  33	  94
  33	  98
  33	  99
  33	 104
  33	 105
  33	 108
  33	 114
  33	 118
  33	 119
  34	  35
  34	  38
  34	  39
  34	  43
  34	  44
  34	  46
  34	  50
  34	  52
  34	  54
  34	  56
  34	  57
  34	  59
  34	  60
  34	  61
  34	  62
  34	  64
  34	  66
  34	  68
  34	  72
  34	  74
  34	  80
  34	  81
  34	  87
  34	  90
  34	  91
  34	  96
  34	  98
  34	 105
  34	 111
  34	 112
  34	 113
  34	 114
  34	 115
  34	 117
  34	 119
  35	  38
  35	  52
  35	  56
  35	  58
  35	  67
  35	  72
  35	  75
  35	  79
  35	  84
  35	  85
  35	  91
  35	  98
  35	  99
  35	 100
  35	 107
  35	 109
  35	 112
  35	 115
  35	 117
  35	 118
  36	  38
  36	  44
  36	  45
  36	  48
  36	  49
  36	  50
  36	  58
  36	  59
  36	  60
  36	  61
  36	  62
  36	  68
  36	  70
  36	  73
  36	  74
  36	  79
  36	  82
  36	  92
  36	  96
  36	 100
  36	 104
  36	 107
  36	 111
  36	 113
  36	 115
  37	  39
  37	  40
  37	  42
  37	  43
  37	  50
  37	  51
  37	  54
  37	  57
  37	  59
  37	  60
  37	  65
  37	  67
  37	  79
  37	  80
  37	  82
  37	  87
  37	  88
  37	  90
  37	  92
  37	  96
  37	  98
  37	 100
  37	 104
  37	 105
  37	 106
  37	 107
  37	 110
  37	 111
  37	 117
  38	  39
  38	  40
  38	  45
  38	  48
  38	  53
  38	  55
  38	  57
  38	  66
  38	  70
  38	  77
  38	  79
  38	  86
  38	  89
  38	  93
  38	  97
  38	  99
  38	 100
  38	 101
  38	 105
  38	 106
  38	 108
  38	 110
  38	 111
  38	 119
  39	  42
  39	  43
  39	  47
  39	  49
  39	  50
  39	  54
  39	  64
  39	  66
  39	  68
  39	  70
  39	  71
  39	  72
  39	  79
  39	  83
  39	  84
  39	  86
  39	  92
  39	  93
  39	  96
  39	  98
  39	 102
  39	 103
  39	 105
  39	 112
  39	 113
  39	 116
  39	 118
  40	  43
  40	  48
  40	  52
  40	  55
  40	  59
  40	  61
  40	  64
  40	  65
  40	  67
  40	  73
  40	  76
  40	  78
  40	  81
  40	  82
  40	  85
  40	  87
  40	  89
  40	  91
  40	  92
  40	  93
  40	  94
  40	  97
  40	 104
  40	 108
  40	 114
  40	 119
  41	  44
  41	  46
  41	  49
  41	  53
  41	  55
  41	  57
  41	  58
  41	  63
  41	  69
  41	  72
  41	  73
  41	  79
  41	  82
  41	  95
  41	  96
  41	  98
  41	 101
  41	 102
  41	 103
  41	 113
  41	 118
  42	  43
  42	  44
  42	  48
  42	  54
  42	  56
  42	  64
  42	  72
  42	  74
  42	  77
  42	  78
  42	  80
  42	  84
  42	  88
  42	  93
  42	  96
  42	 100
  42	 104
  42	 106
  42	 110
  42	 118
  42	 119
  43	  44
  43	  45
  43	  47
  43	  52
  43	  55
  43	  56
  43	  61
  43	  64
  43	  66
  43	  70
  43	  72
  43	  75
  43	  77
  43	  85
  43	  87
  43	  88
  43	 100
  43	 101
  43	 104
  43	 107
  43	 114
  43	 115
  43	 116
  44	  48
  44	  49
  44	  50
  44	  53
  44	  54
  44	  58
  44	  66
  44	  74
  44	  75
  44	  77
  44	  78
  44	  80
  44	  81
  44	  83
  44	  86
  44	  87
  44	  89
  44	  92
  44	  94
  44	  97
  44	 109
  44	 112
  44	 114
  44	 117
  45	  50
  45	  63
  45	  67
  45	  71
  45	  73
  45	  77
  45	  79
  45	  80
  45	  81
  45	  83
  45	  85
  45	  94
  45	  96
  45	 101
  45	 103
  45	 110
  45	 112
  45	 113
  45	 115
  46	  47
  46	  48
  46	  55
  46	  56
  46	  57
  46	  59
  46	  60
  46	  61
  46	  62
  46	  64
  46	  68
  46	  71
  46	  74
  46	  75
  46	  83
  46	  87
  46	  88
  46	  91
  46	  92
  46	  93
  46	  94
  46	  95
  46	  99
  46	 100
  46	 103
  46	 105
  46	 107
  46	 118
  47	  48
  47	  52
  47	  53
  47	  54
  47	  61
  47	  71
  47	  73
  47	  77
  47	  85
  47	  97
  47	 105
  47	 107
  47	 109
  47	 111
  47	 114
  47	 116
  47	 118
  47	 119
  48	  49
  48	  51
  48	  60
  48	  63
  48	  64
  48	  66
  48	  77
  48	  79
  48	  81
  48	  83
  48	  86
  48	  89
  48	  92
  48	  97
  48	  98
  48	  99
  48	 112
  48	 116
  48	 118
  49	  53
  49	  56
  49	  57
  49	  58
  49	  64
  49	  65
  49	  67
  49	  73
  49	  74
  49	  77
  49	  78
  49	  79
  49	  81
  49	  83
  49	  86
  49	  88
  49	  89
  49	  91
  49	  93
  49	  97
  49	 100
  49	 107
  49	 112
  49	 113
  49	 114
  49	 115
  49	 116
  49	 118
  50	  51
  50	  52
  50	  58
  50	  59
  50	  63
  50	  64
  50	  66
  50	  72
  50	  84
  50	  86
  50	  91
  50	  92
  50	  99
  50	 104
  50	 107
  50	 108
  50	 111
  50	 112
  50	 113
  50	 115
  50	 116
  51	  53
  51	  58
  51	  61
  51	  65
  51	  68
  51	  71
  51	  82
  51	  84
  51	  90
  51	  93
  51	  94
  51	  98
  51	  99
  51	 100
  51	 103
  51	 104
  51	 105
  51	 107
  51	 109
  51	 112
  51	 113
  51	 114
  51	 115
  51	 118
  51	 119
  52	  55
  52	  56
  52	  57
  52	  62
  52	  63
  52	  65
  52	  70
  52	  77
  52	  92
  52	  93
  52	  96
  52	 104
  52	 107
  52	 110
  52	 117
  52	 118
  53	  55
  53	  69
  53	  73
  53	  78
  53	  82
  53	  83
  53	  84
  53	  85
  53	  96
  53	  99
  53	 105
  53	 107
  53	 108
  53	 112
  53	 117
  54	  55
  54	  56
  54	  67
  54	  70
  54	  72
  54	  73
  54	  74
  54	  76
  54	  77
  54	  78
  54	  81
  54	  83
  54	  85
  54	  86
  54	  88
  54	  90
  54	  94
  54	 102
  54	 108
  54	 109
  54	 111
  54	 113
  54	 118
  55	  57
  55	  58
  55	  59
  55	  61
  55	  69
  55	  77
  55	  78
  55	  84
  55	  85
  55	  86
  55	  90
  55	  91
  55	  92
  55	  96
  55	  99
  55	 108
  55	 110
  56	  57
  56	  58
  56	  62
  56	  64
  56	  68
  56	  72
  56	  75
  56	  79
  56	  80
  56	  83
  56	  86
  56	  89
  56	  96
  56	  99
  56	 100
  56	 102
  56	 104
  56	 111
  56	 119
  57	  58
  57	  62
  57	  63
  57	  64
  57	  65
  57	  67
  57	  68
  57	  70
  57	  71
  57	  80
  57	  85
  57	  90
  57	  91
  57	  98
  57	  99
  57	 101
  57	 105
  57	 108
  57	 109
  57	 112
  57	 113
  57	 114
  57	 115
  57	 117
  58	  59
  58	  60
  58	  62
  58	  63
  58	  75
  58	  76
  58	  78
  58	  83
  58	  84
  58	  87
  58	  88
  58	  92
  58	  93
  58	  96
  58	  99
  58	 102
  58	 107
  58	 109
  58	 116
  59	  60
  59	  69
  59	  70
  59	  71
  59	  72
  59	  78
  59	  80
  59	  81
  59	  85
  59	  86
  59	  89
  59	  95
  59	  96
  59	  98
  59	 104
  60	  62
  60	  67
  60	  68
  60	  73
  60	  76
  60	  80
  60	  84
  60	  88
  60	  90
  60	  96
  60	  98
  60	 103
  60	 104
  60	 105
  60	 106
  60	 109
  60	 110
  60	 111
  60	 114
  60	 116
  60	 117
  61	  63
  61	  64
  61	  69
  61	  77
  61	  79
  61	  82
  61	  87
  61	  91
  61	  92
  61	  94
  61	  95
  61	 103
  61	 104
  61	 106
  61	 115
  62	  63
  62	  64
  62	  65
  62	  66
  62	  67
  62	  69
  62	  71
  62	  72
  62	  74
  62	  75
  62	  76
  62	  77
  62	  79
  62	  82
  62	  84
  62	  85
  62	  89
  62	  92
  62	  96
  62	 105
  62	 107
  62	 109
  62	 118
  63	  67
  63	  68
  63	  74
  63	  75
  63	  78
  63	  80
  63	  81
  63	  83
  63	  85
  63	  91
  63	  99
  63	 106
  63	 108
  63	 111
  63	 114
  63	 117
  64	  65
  64	  70
  64	  74
  64	  85
  64	  90
  64	  93
  64	  94
  64	  95
  64	  96
  64	  97
  64	  98
  64	  99
  64	 100
  64	 105
  64	 107
  64	 112
  64	 116
  64	 119
  65	  66
  65	  67
  65	  77
  65	  84
  65	  87
  65	  91
  65	  95
  65	  96
  65	  99
  65	 103
  65	 116
  65	 118
  65	 119
  66	  67
  66	  71
  66	  74
  66	  76
  66	  77
  66	  85
  66	  86
  66	  90
  66	  95
  66	  99
  66	 107
  66	 110
  66	 112
  66	 115
  66	 117
  67	  72
  67	  75
  67	  90
  67	  99
  67	 105
  67	 106
  67	 116
  68	  70
  68	  74
  68	  76
  68	  81
  68	  84
  68	  96
  68	  99
  68	 100
  68	 108
  68	 109
  68	 114
  69	  74
  69	  75
  69	  79
  69	  80
  69	  82
  69	  84
  69	  87
  69	  91
  69	  94
  69	  95
  69	  96
  69	 101
  69	 104
  69	 105
  69	 111
  69	 113
  70	  73
  70	  74
  70	  80
  70	  81
  70	  82
  70	  85
  70	  88
  70	  93
  70	  96
  70	  99
  70	 100
  70	 106
  70	 107
  70	 108
  70	 109
  70	 110
  70	 111
  70	 114
  70	 117
  71	  73
  71	  75
  71	  76
  71	  77
  71	  79
  71	  83
  71	  91
  71	  92
  71	  93
  71	  94
  71	  95
  71	  96
  71	  99
  71	 100
  71	 103
  71	 104
  71	 105
  71	 109
  71	 110
  71	 112
  71	 114
  72	  74
  72	  76
  72	  78
  72	  81
  72	  82
  72	  83
  72	  85
  72	  89
  72	  90
  72	  92
  72	  93
  72	  97
  72	  98
  72	  99
  72	 102
  72	 103
  72	 108
  72	 111
  72	 114
  72	 115
  72	 117
  73	  74
  73	  75
  73	  78
  73	  80
  73	  82
  73	  85
  73	  86
  73	  92
  73	  93
  73	  94
  73	  98
  73	  99
  73	 105
  73	 118
  74	  77
  74	  78
  74	  80
  74	  86
  74	  90
  74	  99
  74	 101
  74	 105
  74	 106
  74	 108
  74	 109
  74	 111
  74	 117
  75	  81
  75	  83
  75	  84
  75	  90
  75	  91
  75	  97
  75	 100
  75	 101
  75	 105
  75	 111
  75	 113
  75	 114
  75	 119
  76	  79
  76	  86
  76	  89
  76	  90
  76	  93
  76	 101
  76	 102
  76	 104
  76	 105
  76	 109
  76	 110
  76	 114
  76	 116
  76	 118
  77	  79
  77	  80
  77	  82
  77	  89
  77	  91
  77	 100
  77	 101
  77	 111
  77	 112
  77	 113
  77	 117
  78	  81
  78	  94
  78	 103
  78	 105
  78	 111
  78	 116
  79	  88
  79	  92
  79	  94
  79	  95
  79	 102
  79	 104
  79	 112
  79	 117
  80	  82
  80	  84
  80	  85
  80	  90
  80	  95
  80	  96
  80	 100
  80	 104
  80	 109
  80	 110
  80	 117
  81	  85
  81	  86
  81	  87
  81	  89
  81	  91
  81	  94
  81	  95
  81	  96
  81	 100
  81	 101
  81	 105
  81	 113
  81	 115
  82	  83
  82	  84
  82	  89
  82	  90
  82	  97
  82	  98
  82	 114
  82	 116
  83	  86
  83	  87
  83	  90
  83	  98
  83	 100
  83	 106
  83	 108
  83	 109
  83	 111
  83	 113
  83	 116
  83	 117
  83	 119
  84	  87
  84	  91
  84	  92
  84	  94
  84	  95
  84	 104
  84	 112
  84	 115
  84	 116
  84	 117
  84	 118
  85	  90
  85	  94
  85	  97
  85	 105
  85	 109
  85	 110
  85	 112
  85	 115
  85	 116
  85	 117
  85	 118
  86	  89
  86	  90
  86	  92
  86	  93
  86	  97
  86	 101
  86	 103
  86	 105
  86	 106
  86	 109
  86	 115
  87	  95
  87	  97
  87	  98
  87	  99
  87	 104
  87	 106
  87	 108
  87	 111
  87	 112
  87	 113
  87	 114
  87	 117
  87	 118
  88	  91
  88	  92
  88	  93
  88	  95
  88	  96
  88	  97
  88	 103
  88	 105
  88	 107
  88	 108
  88	 110
  88	 112
  88	 113
  88	 117
  89	  94
  89	  96
  89	  97
  89	 103
  89	 110
  89	 113
  89	 115
  89	 117
  90	  96
  90	  98
  90	 101
  90	 102
  90	 103
  90	 109
  90	 112
  90	 117
  90	 119
  91	  94
  91	  96
  91	  97
  91	  99
  91	 103
  91	 104
  91	 106
  91	 107
  91	 108
  91	 113
  91	 115
  91	 117
  91	 119
  92	  97
  92	 101
  92	 107
  92	 117
  93	  94
  93	 102
  93	 103
  93	 105
  93	 108
  93	 111
  93	 114
  93	 115
  94	  97
  94	  99
  94	 103
  94	 105
  94	 111
  94	 113
  94	 119
  95	  96
  95	  98
  95	 105
  96	  99
  96	 100
  96	 103
  96	 111
  96	 114
  97	  98
  97	 101
  97	 104
  97	 106
  97	 108
  97	 111
  97	 112
  97	 119
  98	 100
  98	 102
  98	 116
  98	 117
  99	 100
  99	 108
  99	 109
  99	 112
  99	 113
  99	 114
  99	 115
  99	 116
 100	 101
 100	 102
 100	 103
 100	 104
 100	 108
 100	 111
 100	 112
 100	 114
 101	 105
 101	 116
 101	 119
 102	 103
 102	 104
 102	 107
 102	 112
 102	 113
 102	 115
 102	 116
 102	 118
 103	 105
 103	 107
 103	 109
 103	 115
 103	 116
 104	 110
 104	 112
 104	 113
 104	 117
 105	 108
 105	 110
 105	 112
 105	 113
 105	 116
 105	 117
 105	 119
 106	 109
 106	 110
 106	 115
 106	 117
 107	 109
 107	 110
 107	 118
 107	 119
 108	 109
 108	 110
 108	 112
 108	 116
 108	 118
 108	 119
 109	 110
 109	 112
 109	 114
 109	 116
 109	 117
 110	 113
 110	 115
 110	 117
 111	 113
 111	 116
 112	 113
 112	 115
 112	 118
 113	 115
 113	 119
 114	 119
 115	 118
 115	 119
 116	 118
 116	 119
 117	 119
;
